Maximize
 obj: - z0 - z1 - z2 - z3 - z4 - z5 - z6 - z7 - z8 - z9 - z10 - z11 - z12 - z13 - z14 - z15 - z16 - z17 - z18 - z19 - z20 - z21 - z22 - z23 - z24 + 25
Subject To
 c0: x00 + x01 + x02 + x03 = 1
 c1: x10 + x11 + x12 + x13 = 1
 c2: x20 + x21 + x22 + x23 = 1
 c3: x30 + x31 + x32 + x33 = 1
 c4: x40 + x41 + x42 + x43 = 1
 c5: x50 + x51 + x52 + x53 = 1
 c6: x60 + x61 + x62 + x63 = 1
 c7: x70 + x71 + x72 + x73 = 1
 c8: x80 + x81 + x82 + x83 = 1
 c9: x90 + x91 + x92 + x93 = 1
 c10: x100 + x101 + x102 + x103 = 1
 c11: x110 + x111 + x112 + x113 = 1
 c12: x120 + x121 + x122 + x123 = 1
 c13: x130 + x131 + x132 + x133 = 1
 c14: x140 + x141 + x142 + x143 = 1
 c15: x150 + x151 + x152 + x153 = 1
 c16: x160 + x161 + x162 + x163 = 1
 c17: x170 + x171 + x172 + x173 = 1
 c18: x180 + x181 + x182 + x183 = 1
 c19: x190 + x191 + x192 + x193 = 1
 c20: x200 + x201 + x202 + x203 = 1
 c21: x210 + x211 + x212 + x213 = 1
 c22: x220 + x221 + x222 + x223 = 1
 c23: x230 + x231 + x232 + x233 = 1
 c24: x240 + x241 + x242 + x243 = 1
 c25: x00 + x32 - z0 <= 1
 c26: x00 + x40 - z0 <= 1
 c27: x00 + x61 - z0 <= 1
 c28: x00 + x92 - z0 <= 1
 c29: x00 + x170 - z0 <= 1
 c30: x00 + x221 - z0 <= 1
 c31: x00 + x222 - z0 <= 1
 c32: x00 + x232 - z0 <= 1
 c33: x00 + x233 - z0 <= 1
 c34: x01 + x40 - z0 <= 1
 c35: x01 + x41 - z0 <= 1
 c36: x01 + x170 - z0 <= 1
 c37: x01 + x171 - z0 <= 1
 c38: x01 + x232 - z0 <= 1
 c39: x02 + x40 - z0 <= 1
 c40: x02 + x41 - z0 <= 1
 c41: x02 + x42 - z0 <= 1
 c42: x02 + x43 - z0 <= 1
 c43: x02 + x170 - z0 <= 1
 c44: x02 + x171 - z0 <= 1
 c45: x02 + x172 - z0 <= 1
 c46: x02 + x173 - z0 <= 1
 c47: x03 + x21 - z0 <= 1
 c48: x03 + x40 - z0 <= 1
 c49: x03 + x43 - z0 <= 1
 c50: x03 + x61 - z0 <= 1
 c51: x03 + x62 - z0 <= 1
 c52: x03 + x170 - z0 <= 1
 c53: x03 + x173 - z0 <= 1
 c54: x03 + x222 - z0 <= 1
 c55: x10 + x182 - z1 <= 1
 c56: x10 + x183 - z1 <= 1
 c57: x11 + x160 - z1 <= 1
 c58: x11 + x163 - z1 <= 1
 c59: x11 + x182 - z1 <= 1
 c60: x12 + x163 - z1 <= 1
 c61: x20 + x62 - z2 <= 1
 c62: x20 + x63 - z2 <= 1
 c63: x20 + x132 - z2 <= 1
 c64: x20 + x152 - z2 <= 1
 c65: x21 + x03 - z2 <= 1
 c66: x21 + x40 - z2 <= 1
 c67: x21 + x43 - z2 <= 1
 c68: x21 + x62 - z2 <= 1
 c69: x21 + x170 - z2 <= 1
 c70: x21 + x173 - z2 <= 1
 c71: x22 + x43 - z2 <= 1
 c72: x22 + x173 - z2 <= 1
 c73: x23 + x101 - z2 <= 1
 c74: x30 + x90 - z3 <= 1
 c75: x30 + x91 - z3 <= 1
 c76: x30 + x190 - z3 <= 1
 c77: x30 + x193 - z3 <= 1
 c78: x30 + x213 - z3 <= 1
 c79: x31 + x53 - z3 <= 1
 c80: x31 + x91 - z3 <= 1
 c81: x31 + x190 - z3 <= 1
 c82: x31 + x191 - z3 <= 1
 c83: x31 + x192 - z3 <= 1
 c84: x31 + x193 - z3 <= 1
 c85: x31 + x212 - z3 <= 1
 c86: x31 + x213 - z3 <= 1
 c87: x31 + x230 - z3 <= 1
 c88: x32 + x00 - z3 <= 1
 c89: x32 + x91 - z3 <= 1
 c90: x32 + x92 - z3 <= 1
 c91: x32 + x192 - z3 <= 1
 c92: x32 + x193 - z3 <= 1
 c93: x32 + x220 - z3 <= 1
 c94: x32 + x221 - z3 <= 1
 c95: x32 + x230 - z3 <= 1
 c96: x32 + x233 - z3 <= 1
 c97: x33 + x90 - z3 <= 1
 c98: x33 + x91 - z3 <= 1
 c99: x33 + x92 - z3 <= 1
 c100: x33 + x93 - z3 <= 1
 c101: x33 + x193 - z3 <= 1
 c102: x33 + x220 - z3 <= 1
 c103: x40 + x00 - z4 <= 1
 c104: x40 + x01 - z4 <= 1
 c105: x40 + x02 - z4 <= 1
 c106: x40 + x03 - z4 <= 1
 c107: x40 + x21 - z4 <= 1
 c108: x40 + x61 - z4 <= 1
 c109: x40 + x62 - z4 <= 1
 c110: x40 + x170 - z4 <= 1
 c111: x40 + x171 - z4 <= 1
 c112: x40 + x172 - z4 <= 1
 c113: x40 + x173 - z4 <= 1
 c114: x40 + x232 - z4 <= 1
 c115: x40 + x233 - z4 <= 1
 c116: x41 + x01 - z4 <= 1
 c117: x41 + x02 - z4 <= 1
 c118: x41 + x171 - z4 <= 1
 c119: x41 + x172 - z4 <= 1
 c120: x41 + x232 - z4 <= 1
 c121: x42 + x02 - z4 <= 1
 c122: x42 + x172 - z4 <= 1
 c123: x43 + x02 - z4 <= 1
 c124: x43 + x03 - z4 <= 1
 c125: x43 + x21 - z4 <= 1
 c126: x43 + x22 - z4 <= 1
 c127: x43 + x62 - z4 <= 1
 c128: x43 + x172 - z4 <= 1
 c129: x43 + x173 - z4 <= 1
 c130: x50 + x110 - z5 <= 1
 c131: x50 + x111 - z5 <= 1
 c132: x50 + x112 - z5 <= 1
 c133: x50 + x113 - z5 <= 1
 c134: x50 + x140 - z5 <= 1
 c135: x50 + x143 - z5 <= 1
 c136: x50 + x211 - z5 <= 1
 c137: x51 + x111 - z5 <= 1
 c138: x51 + x112 - z5 <= 1
 c139: x51 + x140 - z5 <= 1
 c140: x51 + x141 - z5 <= 1
 c141: x51 + x142 - z5 <= 1
 c142: x51 + x143 - z5 <= 1
 c143: x52 + x112 - z5 <= 1
 c144: x52 + x142 - z5 <= 1
 c145: x52 + x143 - z5 <= 1
 c146: x52 + x191 - z5 <= 1
 c147: x53 + x31 - z5 <= 1
 c148: x53 + x112 - z5 <= 1
 c149: x53 + x113 - z5 <= 1
 c150: x53 + x143 - z5 <= 1
 c151: x53 + x190 - z5 <= 1
 c152: x53 + x191 - z5 <= 1
 c153: x53 + x211 - z5 <= 1
 c154: x53 + x212 - z5 <= 1
 c155: x60 + x92 - z6 <= 1
 c156: x60 + x93 - z6 <= 1
 c157: x60 + x130 - z6 <= 1
 c158: x60 + x131 - z6 <= 1
 c159: x60 + x132 - z6 <= 1
 c160: x60 + x133 - z6 <= 1
 c161: x60 + x151 - z6 <= 1
 c162: x60 + x152 - z6 <= 1
 c163: x60 + x222 - z6 <= 1
 c164: x60 + x223 - z6 <= 1
 c165: x61 + x00 - z6 <= 1
 c166: x61 + x03 - z6 <= 1
 c167: x61 + x40 - z6 <= 1
 c168: x61 + x92 - z6 <= 1
 c169: x61 + x131 - z6 <= 1
 c170: x61 + x132 - z6 <= 1
 c171: x61 + x170 - z6 <= 1
 c172: x61 + x222 - z6 <= 1
 c173: x61 + x233 - z6 <= 1
 c174: x62 + x03 - z6 <= 1
 c175: x62 + x20 - z6 <= 1
 c176: x62 + x21 - z6 <= 1
 c177: x62 + x40 - z6 <= 1
 c178: x62 + x43 - z6 <= 1
 c179: x62 + x132 - z6 <= 1
 c180: x62 + x170 - z6 <= 1
 c181: x62 + x173 - z6 <= 1
 c182: x63 + x20 - z6 <= 1
 c183: x63 + x132 - z6 <= 1
 c184: x63 + x133 - z6 <= 1
 c185: x63 + x152 - z6 <= 1
 c186: x70 + x100 - z7 <= 1
 c187: x70 + x103 - z7 <= 1
 c188: x70 + x240 - z7 <= 1
 c189: x71 + x100 - z7 <= 1
 c190: x71 + x101 - z7 <= 1
 c191: x71 + x102 - z7 <= 1
 c192: x71 + x103 - z7 <= 1
 c193: x71 + x240 - z7 <= 1
 c194: x71 + x241 - z7 <= 1
 c195: x72 + x102 - z7 <= 1
 c196: x72 + x103 - z7 <= 1
 c197: x72 + x160 - z7 <= 1
 c198: x72 + x181 - z7 <= 1
 c199: x72 + x240 - z7 <= 1
 c200: x72 + x241 - z7 <= 1
 c201: x72 + x242 - z7 <= 1
 c202: x72 + x243 - z7 <= 1
 c203: x73 + x103 - z7 <= 1
 c204: x73 + x180 - z7 <= 1
 c205: x73 + x181 - z7 <= 1
 c206: x73 + x240 - z7 <= 1
 c207: x73 + x243 - z7 <= 1
 c208: x80 + x120 - z8 <= 1
 c209: x80 + x121 - z8 <= 1
 c210: x81 + x121 - z8 <= 1
 c211: x82 + x121 - z8 <= 1
 c212: x82 + x122 - z8 <= 1
 c213: x83 + x120 - z8 <= 1
 c214: x83 + x121 - z8 <= 1
 c215: x83 + x122 - z8 <= 1
 c216: x83 + x123 - z8 <= 1
 c217: x90 + x30 - z9 <= 1
 c218: x90 + x33 - z9 <= 1
 c219: x90 + x190 - z9 <= 1
 c220: x90 + x193 - z9 <= 1
 c221: x90 + x220 - z9 <= 1
 c222: x91 + x30 - z9 <= 1
 c223: x91 + x31 - z9 <= 1
 c224: x91 + x32 - z9 <= 1
 c225: x91 + x33 - z9 <= 1
 c226: x91 + x190 - z9 <= 1
 c227: x91 + x191 - z9 <= 1
 c228: x91 + x192 - z9 <= 1
 c229: x91 + x193 - z9 <= 1
 c230: x91 + x220 - z9 <= 1
 c231: x91 + x221 - z9 <= 1
 c232: x91 + x230 - z9 <= 1
 c233: x92 + x00 - z9 <= 1
 c234: x92 + x32 - z9 <= 1
 c235: x92 + x33 - z9 <= 1
 c236: x92 + x60 - z9 <= 1
 c237: x92 + x61 - z9 <= 1
 c238: x92 + x131 - z9 <= 1
 c239: x92 + x151 - z9 <= 1
 c240: x92 + x192 - z9 <= 1
 c241: x92 + x193 - z9 <= 1
 c242: x92 + x220 - z9 <= 1
 c243: x92 + x221 - z9 <= 1
 c244: x92 + x222 - z9 <= 1
 c245: x92 + x223 - z9 <= 1
 c246: x92 + x230 - z9 <= 1
 c247: x92 + x233 - z9 <= 1
 c248: x93 + x33 - z9 <= 1
 c249: x93 + x60 - z9 <= 1
 c250: x93 + x130 - z9 <= 1
 c251: x93 + x131 - z9 <= 1
 c252: x93 + x150 - z9 <= 1
 c253: x93 + x151 - z9 <= 1
 c254: x93 + x193 - z9 <= 1
 c255: x93 + x220 - z9 <= 1
 c256: x93 + x223 - z9 <= 1
 c257: x100 + x70 - z10 <= 1
 c258: x100 + x71 - z10 <= 1
 c259: x101 + x23 - z10 <= 1
 c260: x101 + x71 - z10 <= 1
 c261: x102 + x71 - z10 <= 1
 c262: x102 + x72 - z10 <= 1
 c263: x102 + x240 - z10 <= 1
 c264: x102 + x241 - z10 <= 1
 c265: x103 + x70 - z10 <= 1
 c266: x103 + x71 - z10 <= 1
 c267: x103 + x72 - z10 <= 1
 c268: x103 + x73 - z10 <= 1
 c269: x103 + x240 - z10 <= 1
 c270: x110 + x50 - z11 <= 1
 c271: x110 + x140 - z11 <= 1
 c272: x110 + x211 - z11 <= 1
 c273: x111 + x50 - z11 <= 1
 c274: x111 + x51 - z11 <= 1
 c275: x111 + x140 - z11 <= 1
 c276: x111 + x141 - z11 <= 1
 c277: x112 + x50 - z11 <= 1
 c278: x112 + x51 - z11 <= 1
 c279: x112 + x52 - z11 <= 1
 c280: x112 + x53 - z11 <= 1
 c281: x112 + x140 - z11 <= 1
 c282: x112 + x141 - z11 <= 1
 c283: x112 + x142 - z11 <= 1
 c284: x112 + x143 - z11 <= 1
 c285: x113 + x50 - z11 <= 1
 c286: x113 + x53 - z11 <= 1
 c287: x113 + x140 - z11 <= 1
 c288: x113 + x143 - z11 <= 1
 c289: x113 + x211 - z11 <= 1
 c290: x113 + x212 - z11 <= 1
 c291: x120 + x80 - z12 <= 1
 c292: x120 + x83 - z12 <= 1
 c293: x121 + x80 - z12 <= 1
 c294: x121 + x81 - z12 <= 1
 c295: x121 + x82 - z12 <= 1
 c296: x121 + x83 - z12 <= 1
 c297: x122 + x82 - z12 <= 1
 c298: x122 + x83 - z12 <= 1
 c299: x122 + x161 - z12 <= 1
 c300: x123 + x83 - z12 <= 1
 c301: x123 + x160 - z12 <= 1
 c302: x123 + x161 - z12 <= 1
 c303: x130 + x60 - z13 <= 1
 c304: x130 + x93 - z13 <= 1
 c305: x130 + x150 - z13 <= 1
 c306: x130 + x151 - z13 <= 1
 c307: x130 + x220 - z13 <= 1
 c308: x130 + x223 - z13 <= 1
 c309: x131 + x60 - z13 <= 1
 c310: x131 + x61 - z13 <= 1
 c311: x131 + x92 - z13 <= 1
 c312: x131 + x93 - z13 <= 1
 c313: x131 + x151 - z13 <= 1
 c314: x131 + x220 - z13 <= 1
 c315: x131 + x221 - z13 <= 1
 c316: x131 + x222 - z13 <= 1
 c317: x131 + x223 - z13 <= 1
 c318: x131 + x233 - z13 <= 1
 c319: x132 + x20 - z13 <= 1
 c320: x132 + x60 - z13 <= 1
 c321: x132 + x61 - z13 <= 1
 c322: x132 + x62 - z13 <= 1
 c323: x132 + x63 - z13 <= 1
 c324: x132 + x151 - z13 <= 1
 c325: x132 + x152 - z13 <= 1
 c326: x132 + x222 - z13 <= 1
 c327: x132 + x223 - z13 <= 1
 c328: x133 + x60 - z13 <= 1
 c329: x133 + x63 - z13 <= 1
 c330: x133 + x150 - z13 <= 1
 c331: x133 + x151 - z13 <= 1
 c332: x133 + x152 - z13 <= 1
 c333: x133 + x153 - z13 <= 1
 c334: x133 + x223 - z13 <= 1
 c335: x140 + x50 - z14 <= 1
 c336: x140 + x51 - z14 <= 1
 c337: x140 + x110 - z14 <= 1
 c338: x140 + x111 - z14 <= 1
 c339: x140 + x112 - z14 <= 1
 c340: x140 + x113 - z14 <= 1
 c341: x140 + x211 - z14 <= 1
 c342: x141 + x51 - z14 <= 1
 c343: x141 + x111 - z14 <= 1
 c344: x141 + x112 - z14 <= 1
 c345: x142 + x51 - z14 <= 1
 c346: x142 + x52 - z14 <= 1
 c347: x142 + x112 - z14 <= 1
 c348: x142 + x191 - z14 <= 1
 c349: x143 + x50 - z14 <= 1
 c350: x143 + x51 - z14 <= 1
 c351: x143 + x52 - z14 <= 1
 c352: x143 + x53 - z14 <= 1
 c353: x143 + x112 - z14 <= 1
 c354: x143 + x113 - z14 <= 1
 c355: x143 + x190 - z14 <= 1
 c356: x143 + x191 - z14 <= 1
 c357: x143 + x211 - z14 <= 1
 c358: x143 + x212 - z14 <= 1
 c359: x150 + x93 - z15 <= 1
 c360: x150 + x130 - z15 <= 1
 c361: x150 + x133 - z15 <= 1
 c362: x151 + x60 - z15 <= 1
 c363: x151 + x92 - z15 <= 1
 c364: x151 + x93 - z15 <= 1
 c365: x151 + x130 - z15 <= 1
 c366: x151 + x131 - z15 <= 1
 c367: x151 + x132 - z15 <= 1
 c368: x151 + x133 - z15 <= 1
 c369: x151 + x223 - z15 <= 1
 c370: x152 + x20 - z15 <= 1
 c371: x152 + x60 - z15 <= 1
 c372: x152 + x63 - z15 <= 1
 c373: x152 + x132 - z15 <= 1
 c374: x152 + x133 - z15 <= 1
 c375: x153 + x133 - z15 <= 1
 c376: x160 + x11 - z16 <= 1
 c377: x160 + x72 - z16 <= 1
 c378: x160 + x123 - z16 <= 1
 c379: x160 + x181 - z16 <= 1
 c380: x160 + x182 - z16 <= 1
 c381: x160 + x242 - z16 <= 1
 c382: x161 + x122 - z16 <= 1
 c383: x161 + x123 - z16 <= 1
 c384: x163 + x11 - z16 <= 1
 c385: x163 + x12 - z16 <= 1
 c386: x163 + x182 - z16 <= 1
 c387: x170 + x00 - z17 <= 1
 c388: x170 + x01 - z17 <= 1
 c389: x170 + x02 - z17 <= 1
 c390: x170 + x03 - z17 <= 1
 c391: x170 + x21 - z17 <= 1
 c392: x170 + x40 - z17 <= 1
 c393: x170 + x61 - z17 <= 1
 c394: x170 + x62 - z17 <= 1
 c395: x170 + x222 - z17 <= 1
 c396: x170 + x232 - z17 <= 1
 c397: x170 + x233 - z17 <= 1
 c398: x171 + x01 - z17 <= 1
 c399: x171 + x02 - z17 <= 1
 c400: x171 + x40 - z17 <= 1
 c401: x171 + x41 - z17 <= 1
 c402: x171 + x232 - z17 <= 1
 c403: x172 + x02 - z17 <= 1
 c404: x172 + x40 - z17 <= 1
 c405: x172 + x41 - z17 <= 1
 c406: x172 + x42 - z17 <= 1
 c407: x172 + x43 - z17 <= 1
 c408: x173 + x02 - z17 <= 1
 c409: x173 + x03 - z17 <= 1
 c410: x173 + x21 - z17 <= 1
 c411: x173 + x22 - z17 <= 1
 c412: x173 + x40 - z17 <= 1
 c413: x173 + x43 - z17 <= 1
 c414: x173 + x62 - z17 <= 1
 c415: x180 + x73 - z18 <= 1
 c416: x180 + x243 - z18 <= 1
 c417: x181 + x72 - z18 <= 1
 c418: x181 + x73 - z18 <= 1
 c419: x181 + x160 - z18 <= 1
 c420: x181 + x242 - z18 <= 1
 c421: x181 + x243 - z18 <= 1
 c422: x182 + x10 - z18 <= 1
 c423: x182 + x11 - z18 <= 1
 c424: x182 + x160 - z18 <= 1
 c425: x182 + x163 - z18 <= 1
 c426: x183 + x10 - z18 <= 1
 c427: x190 + x30 - z19 <= 1
 c428: x190 + x31 - z19 <= 1
 c429: x190 + x53 - z19 <= 1
 c430: x190 + x90 - z19 <= 1
 c431: x190 + x91 - z19 <= 1
 c432: x190 + x143 - z19 <= 1
 c433: x190 + x212 - z19 <= 1
 c434: x190 + x213 - z19 <= 1
 c435: x191 + x31 - z19 <= 1
 c436: x191 + x52 - z19 <= 1
 c437: x191 + x53 - z19 <= 1
 c438: x191 + x91 - z19 <= 1
 c439: x191 + x142 - z19 <= 1
 c440: x191 + x143 - z19 <= 1
 c441: x191 + x212 - z19 <= 1
 c442: x192 + x31 - z19 <= 1
 c443: x192 + x32 - z19 <= 1
 c444: x192 + x91 - z19 <= 1
 c445: x192 + x92 - z19 <= 1
 c446: x192 + x221 - z19 <= 1
 c447: x192 + x230 - z19 <= 1
 c448: x192 + x231 - z19 <= 1
 c449: x193 + x30 - z19 <= 1
 c450: x193 + x31 - z19 <= 1
 c451: x193 + x32 - z19 <= 1
 c452: x193 + x33 - z19 <= 1
 c453: x193 + x90 - z19 <= 1
 c454: x193 + x91 - z19 <= 1
 c455: x193 + x92 - z19 <= 1
 c456: x193 + x93 - z19 <= 1
 c457: x193 + x220 - z19 <= 1
 c458: x193 + x221 - z19 <= 1
 c459: x193 + x230 - z19 <= 1
 c460: x202 + x210 - z20 <= 1
 c461: x210 + x202 - z21 <= 1
 c462: x211 + x50 - z21 <= 1
 c463: x211 + x53 - z21 <= 1
 c464: x211 + x110 - z21 <= 1
 c465: x211 + x113 - z21 <= 1
 c466: x211 + x140 - z21 <= 1
 c467: x211 + x143 - z21 <= 1
 c468: x212 + x31 - z21 <= 1
 c469: x212 + x53 - z21 <= 1
 c470: x212 + x113 - z21 <= 1
 c471: x212 + x143 - z21 <= 1
 c472: x212 + x190 - z21 <= 1
 c473: x212 + x191 - z21 <= 1
 c474: x213 + x30 - z21 <= 1
 c475: x213 + x31 - z21 <= 1
 c476: x213 + x190 - z21 <= 1
 c477: x220 + x32 - z22 <= 1
 c478: x220 + x33 - z22 <= 1
 c479: x220 + x90 - z22 <= 1
 c480: x220 + x91 - z22 <= 1
 c481: x220 + x92 - z22 <= 1
 c482: x220 + x93 - z22 <= 1
 c483: x220 + x130 - z22 <= 1
 c484: x220 + x131 - z22 <= 1
 c485: x220 + x193 - z22 <= 1
 c486: x221 + x00 - z22 <= 1
 c487: x221 + x32 - z22 <= 1
 c488: x221 + x91 - z22 <= 1
 c489: x221 + x92 - z22 <= 1
 c490: x221 + x131 - z22 <= 1
 c491: x221 + x192 - z22 <= 1
 c492: x221 + x193 - z22 <= 1
 c493: x221 + x230 - z22 <= 1
 c494: x221 + x233 - z22 <= 1
 c495: x222 + x00 - z22 <= 1
 c496: x222 + x03 - z22 <= 1
 c497: x222 + x60 - z22 <= 1
 c498: x222 + x61 - z22 <= 1
 c499: x222 + x92 - z22 <= 1
 c500: x222 + x131 - z22 <= 1
 c501: x222 + x132 - z22 <= 1
 c502: x222 + x170 - z22 <= 1
 c503: x222 + x233 - z22 <= 1
 c504: x223 + x60 - z22 <= 1
 c505: x223 + x92 - z22 <= 1
 c506: x223 + x93 - z22 <= 1
 c507: x223 + x130 - z22 <= 1
 c508: x223 + x131 - z22 <= 1
 c509: x223 + x132 - z22 <= 1
 c510: x223 + x133 - z22 <= 1
 c511: x223 + x151 - z22 <= 1
 c512: x230 + x31 - z23 <= 1
 c513: x230 + x32 - z23 <= 1
 c514: x230 + x91 - z23 <= 1
 c515: x230 + x92 - z23 <= 1
 c516: x230 + x192 - z23 <= 1
 c517: x230 + x193 - z23 <= 1
 c518: x230 + x221 - z23 <= 1
 c519: x231 + x192 - z23 <= 1
 c520: x232 + x00 - z23 <= 1
 c521: x232 + x01 - z23 <= 1
 c522: x232 + x40 - z23 <= 1
 c523: x232 + x41 - z23 <= 1
 c524: x232 + x170 - z23 <= 1
 c525: x232 + x171 - z23 <= 1
 c526: x233 + x00 - z23 <= 1
 c527: x233 + x32 - z23 <= 1
 c528: x233 + x40 - z23 <= 1
 c529: x233 + x61 - z23 <= 1
 c530: x233 + x92 - z23 <= 1
 c531: x233 + x131 - z23 <= 1
 c532: x233 + x170 - z23 <= 1
 c533: x233 + x221 - z23 <= 1
 c534: x233 + x222 - z23 <= 1
 c535: x240 + x70 - z24 <= 1
 c536: x240 + x71 - z24 <= 1
 c537: x240 + x72 - z24 <= 1
 c538: x240 + x73 - z24 <= 1
 c539: x240 + x102 - z24 <= 1
 c540: x240 + x103 - z24 <= 1
 c541: x241 + x71 - z24 <= 1
 c542: x241 + x72 - z24 <= 1
 c543: x241 + x102 - z24 <= 1
 c544: x242 + x72 - z24 <= 1
 c545: x242 + x160 - z24 <= 1
 c546: x242 + x181 - z24 <= 1
 c547: x243 + x72 - z24 <= 1
 c548: x243 + x73 - z24 <= 1
 c549: x243 + x180 - z24 <= 1
 c550: x243 + x181 - z24 <= 1
Binaries
 x00
 x01
 x02
 x03
 z0
 x10
 x11
 x12
 x13
 z1
 x20
 x21
 x22
 x23
 z2
 x30
 x31
 x32
 x33
 z3
 x40
 x41
 x42
 x43
 z4
 x50
 x51
 x52
 x53
 z5
 x60
 x61
 x62
 x63
 z6
 x70
 x71
 x72
 x73
 z7
 x80
 x81
 x82
 x83
 z8
 x90
 x91
 x92
 x93
 z9
 x100
 x101
 x102
 x103
 z10
 x110
 x111
 x112
 x113
 z11
 x120
 x121
 x122
 x123
 z12
 x130
 x131
 x132
 x133
 z13
 x140
 x141
 x142
 x143
 z14
 x150
 x151
 x152
 x153
 z15
 x160
 x161
 x162
 x163
 z16
 x170
 x171
 x172
 x173
 z17
 x180
 x181
 x182
 x183
 z18
 x190
 x191
 x192
 x193
 z19
 x200
 x201
 x202
 x203
 z20
 x210
 x211
 x212
 x213
 z21
 x220
 x221
 x222
 x223
 z22
 x230
 x231
 x232
 x233
 z23
 x240
 x241
 x242
 x243
 z24
End